;symbolic execution tree
(push)
(assert (le x13 java.lang.StringBuilder))
(check-sat)
(push)
(assert (le x14 siena.HierarchicalDispatcher))
(check-sat)
(pop)
(push)
(assert (not (le x14 siena.HierarchicalDispatcher)))
(check-sat)
(push)
(assert (le x11 java.io.File))
(check-sat)
(pop)
(push)
(assert (le x11 java.util.AbstractMap))
(check-sat)
(push)
(assert (le x6 java.lang.String))
(check-sat)
(push)
(assert (le x1 java.lang.String))
(check-sat)
(pop)
(push)
(assert (not (le x1 java.lang.String)))
(check-sat)
(push)
(assert (le x5 siena.Tokenizer))
(check-sat)
(pop)
(push)
(assert (not (le x5 siena.Tokenizer)))
(check-sat)
(push)
(assert (le x11 java.lang.Object))
(check-sat)
(push)
(assert (le x12 java.lang.String))
(check-sat)
(pop)
(push)
(assert (not (le x12 java.lang.String)))
(check-sat)
(pop)
(push)
(assert (le x6 java.lang.String))
(check-sat)
(push)
(assert (le x10 java.lang.Integer))
(check-sat)
(pop)
(push)
(assert (not (le x10 java.lang.Integer)))
(check-sat)
(pop)
(pop)
(push)
(assert (not (le x6 java.lang.String)))
(check-sat)
(pop)
(push)
(assert (le x12 siena.AttributeValue))
(check-sat)
(push)
(assert (le x6 java.lang.String))
(check-sat)
(push)
(assert (le x7 java.lang.StringBuilder))
(check-sat)
(pop)
(push)
(assert (not (le x7 java.lang.StringBuilder)))
(check-sat)
(push)
(assert (le x8 java.lang.StringBuilder))
(check-sat)
(push)
(assert (le x15 java.lang.String))
(check-sat)
(pop)
(push)
(assert (not (le x15 java.lang.String)))
(check-sat)
(pop)
(pop)
(push)
(assert (not (le x8 java.lang.StringBuilder)))
(check-sat)
(pop)
(push)
(assert (le x7 java.lang.StringBuilder))
(check-sat)
(pop)
(push)
(assert (not (le x7 java.lang.StringBuilder)))
(check-sat)
(pop)
(pop)
(push)
(assert (le x15 siena.AttributeValue))
(check-sat)
(pop)
(push)
(assert (not (le x15 siena.AttributeValue)))
(check-sat)
(pop)
(push)
(assert (le x9 siena.AttributeValue))
(check-sat)
(push)
(assert (le x9 siena.AttributeValue))
(check-sat)
(pop)
(push)
(assert (not (le x9 siena.AttributeValue)))
(check-sat)
(pop)
(pop)
(push)
(assert (not (le x9 siena.AttributeValue)))
(check-sat)
(pop)
(pop)
(push)
(assert (not (le x6 java.lang.String)))
(check-sat)
(pop)
(push)
(assert (le x8 siena.AttributeValue))
(check-sat)
(pop)
(push)
(assert (not (le x8 siena.AttributeValue)))
(check-sat)
(pop)
(push)
(assert (le x2 siena.ByteBuf))
(check-sat)
(push)
(assert (le x2 siena.ByteBuf))
(check-sat)
(push)
(assert (le x6 java.lang.String))
(check-sat)
(push)
(assert (le x0 siena.HierarchicalDispatcher))
(check-sat)
(pop)
(push)
(assert (not (le x0 siena.HierarchicalDispatcher)))
(check-sat)
(pop)
(push)
(assert (le x15 java.lang.StringBuilder))
(check-sat)
(pop)
(push)
(assert (not (le x15 java.lang.StringBuilder)))
(check-sat)
(pop)
(pop)
(push)
(assert (not (le x6 java.lang.String)))
(check-sat)
(pop)
(pop)
(push)
(assert (not (le x2 siena.ByteBuf)))
(check-sat)
(pop)
(pop)
(push)
(assert (not (le x2 siena.ByteBuf)))
(check-sat)
(pop)
(push)
(assert (le x0 siena.ByteBuf))
(check-sat)
(push)
(assert (le x13 java.lang.StringBuilder))
(check-sat)
(pop)
(push)
(assert (not (le x13 java.lang.StringBuilder)))
(check-sat)
(pop)
(push)
(assert (le x1 java.lang.String))
(check-sat)
(pop)
(push)
(assert (not (le x1 java.lang.String)))
(check-sat)
(pop)
(pop)
(push)
(assert (not (le x0 siena.ByteBuf)))
(check-sat)
(push)
(assert (le x10 siena.ByteBuf))
(check-sat)
(pop)
(push)
(assert (not (le x10 siena.ByteBuf)))
(check-sat)
(push)
(assert (le x11 java.lang.Object))
(check-sat)
(pop)
(push)
(assert (not (le x11 java.lang.Object)))
(check-sat)
(pop)
(pop)
(pop)
(push)
(assert (le x7 java.lang.String))
(check-sat)
(pop)
(push)
(assert (not (le x7 java.lang.String)))
(check-sat)
(push)
(assert (le x11 java.lang.Object))
(check-sat)
(pop)
(push)
(assert (not (le x11 java.lang.Object)))
(check-sat)
(pop)
(push)
(assert (le x13 java.lang.StringBuilder))
(check-sat)
(pop)
(push)
(assert (not (le x13 java.lang.StringBuilder)))
(check-sat)
(pop)
(pop)
(push)
(assert (le x10 siena.AttributeConstraint))
(check-sat)
(push)
(assert (le x2 java.lang.String))
(check-sat)
(pop)
(push)
(assert (not (le x2 java.lang.String)))
(check-sat)
(pop)
(pop)
(push)
(assert (le x10 java.lang.Long))
(check-sat)
(push)
(assert (le x14 siena.HierarchicalDispatcher))
(check-sat)
(pop)
(push)
(assert (not (le x14 siena.HierarchicalDispatcher)))
(check-sat)
(push)
(assert (le x2 siena.AttributeValue))
(check-sat)
(pop)
(push)
(assert (not (le x2 siena.AttributeValue)))
(check-sat)
(push)
(assert (le x12 java.lang.Object))
(check-sat)
(pop)
(push)
(assert (not (le x12 java.lang.Object)))
(check-sat)
(pop)
(push)
(assert (le x12 java.lang.Object))
(check-sat)
(pop)
(push)
(assert (not (le x12 java.lang.Object)))
(check-sat)
(pop)
(push)
(assert (le x7 java.lang.Integer))
(check-sat)
(push)
(assert (le x15 siena.ByteBuf))
(check-sat)
(pop)
(push)
(assert (not (le x15 siena.ByteBuf)))
(check-sat)
(pop)
(push)
(assert (le x10 java.lang.Object))
(check-sat)
(pop)
(push)
(assert (not (le x10 java.lang.Object)))
(check-sat)
(pop)
(pop)
(push)
(assert (not (le x7 java.lang.Integer)))
(check-sat)
(pop)
(pop)
(push)
(assert (le x10 java.lang.Object))
(check-sat)
(pop)
(push)
(assert (not (le x10 java.lang.Object)))
(check-sat)
(pop)
(pop)
(pop)
(push)
(assert (le x10 java.lang.Double))
(check-sat)
(pop)
(push)
(assert (le x10 java.io.File))
(check-sat)
(push)
(assert (le x13 java.lang.StringBuilder))
(check-sat)
(pop)
(push)
(assert (not (le x13 java.lang.StringBuilder)))
(check-sat)
(pop)
(pop)
(push)
(assert (le x10 java.net.InetAddress))
(check-sat)
(push)
(assert (le x2 siena.Event))
(check-sat)
(pop)
(push)
(assert (not (le x2 siena.Event)))
(check-sat)
(pop)
(push)
(assert (le x7 java.lang.String))
(check-sat)
(pop)
(push)
(assert (not (le x7 java.lang.String)))
(check-sat)
(push)
(assert (le x4 siena.Event))
(check-sat)
(pop)
(push)
(assert (not (le x4 siena.Event)))
(check-sat)
(pop)
(push)
(assert (le x14 siena.HierarchicalDispatcher))
(check-sat)
(pop)
(push)
(assert (not (le x14 siena.HierarchicalDispatcher)))
(check-sat)
(pop)
(push)
(assert (le x1 java.lang.String))
(check-sat)
(pop)
(push)
(assert (not (le x1 java.lang.String)))
(check-sat)
(pop)
(pop)
(pop)
(push)
(assert (not (le x10 java.util.AbstractMap)))
(check-sat)
(push)
(assert (not (le x10 java.net.InetAddress)))
(check-sat)
(push)
(assert (not (le x10 siena.Subscriber)))
(check-sat)
(push)
(assert (not (le x10 java.io.File)))
(check-sat)
(push)
(assert (not (le x10 java.lang.String)))
(check-sat)
(push)
(assert (le x10 java.lang.Object))
(check-sat)
(push)
(assert (not (le x10 siena.AttributeConstraint)))
(check-sat)
(push)
(assert (not (le x10 siena.AttributeValue)))
(check-sat)
(push)
(assert (le x9 java.net.InetAddress))
(check-sat)
(push)
(assert (le x13 java.lang.StringBuilder))
(check-sat)
(pop)
(push)
(assert (not (le x13 java.lang.StringBuilder)))
(check-sat)
(pop)
(pop)
(push)
(assert (not (le x9 java.net.InetAddress)))
(check-sat)
(push)
(assert (le x14 siena.HierarchicalDispatcher))
(check-sat)
(pop)
(push)
(assert (not (le x14 siena.HierarchicalDispatcher)))
(check-sat)
(pop)
(pop)
(pop)
(pop)
(pop)
(pop)
(pop)
(pop)
(pop)
(pop)
(push)
(assert (le x10 java.lang.Integer))
(check-sat)
(pop)
(push)
(assert (le x10 siena.AttributeValue))
(check-sat)
(pop)
(push)
(assert (le x10 java.lang.Byte))
(check-sat)
(push)
(assert (le x15 siena.Filter))
(check-sat)
(pop)
(push)
(assert (not (le x15 siena.Filter)))
(check-sat)
(pop)
(pop)
(push)
(assert (le x10 java.lang.String))
(check-sat)
(pop)
(push)
(assert (le x10 java.util.AbstractSet))
(check-sat)
(pop)
(push)
(assert (le x10 siena.Subscriber))
(check-sat)
(pop)
(push)
(assert (le x10 java.util.AbstractList))
(check-sat)
(push)
(assert (le x7 java.lang.StringBuilder))
(check-sat)
(pop)
(push)
(assert (not (le x7 java.lang.StringBuilder)))
(check-sat)
(pop)
(push)
(assert (le x10 java.lang.Object))
(check-sat)
(push)
(assert (le x12 java.lang.Object))
(check-sat)
(pop)
(push)
(assert (not (le x12 java.lang.Object)))
(check-sat)
(pop)
(push)
(assert (le x7 java.lang.String))
(check-sat)
(pop)
(push)
(assert (not (le x7 java.lang.String)))
(check-sat)
(pop)
(push)
(assert (le x2 siena.HierarchicalDispatcher))
(check-sat)
(push)
(assert (le x11 java.lang.Object))
(check-sat)
(pop)
(push)
(assert (not (le x11 java.lang.Object)))
(check-sat)
(pop)
(push)
(assert (le x13 java.lang.StringBuilder))
(check-sat)
(pop)
(push)
(assert (not (le x13 java.lang.StringBuilder)))
(check-sat)
(pop)
(pop)
(push)
(assert (not (le x2 siena.HierarchicalDispatcher)))
(check-sat)
(pop)
(pop)
(push)
(assert (not (le x10 java.lang.Object)))
(check-sat)
(pop)
(pop)
(push)
(assert (le x10 java.util.AbstractMap))
(check-sat)
(pop)
(pop)
(push)
(assert (le x12 java.util.AbstractMap))
(check-sat)
(pop)
(push)
(assert (le x12 java.util.AbstractList))
(check-sat)
(pop)
(push)
(assert (le x12 java.lang.Byte))
(check-sat)
(pop)
(push)
(assert (le x12 siena.Subscriber))
(check-sat)
(pop)
(push)
(assert (le x12 java.io.File))
(check-sat)
(pop)
(push)
(assert (le x12 java.lang.Double))
(check-sat)
(pop)
(push)
(assert (le x12 java.util.AbstractSet))
(check-sat)
(pop)
(push)
(assert (not (le x12 java.util.AbstractMap)))
(check-sat)
(push)
(assert (not (le x12 java.lang.String)))
(check-sat)
(push)
(assert (le x12 java.lang.Object))
(check-sat)
(push)
(assert (not (le x12 siena.AttributeConstraint)))
(check-sat)
(push)
(assert (not (le x12 java.net.InetAddress)))
(check-sat)
(push)
(assert (not (le x12 java.io.File)))
(check-sat)
(push)
(assert (not (le x12 siena.Subscriber)))
(check-sat)
(push)
(assert (not (le x12 siena.AttributeValue)))
(check-sat)
(pop)
(pop)
(pop)
(pop)
(pop)
(pop)
(pop)
(pop)
(push)
(assert (le x12 java.net.InetAddress))
(check-sat)
(pop)
(push)
(assert (le x12 java.lang.Integer))
(check-sat)
(pop)
(push)
(assert (le x12 java.lang.String))
(check-sat)
(pop)
(push)
(assert (le x12 siena.AttributeConstraint))
(check-sat)
(pop)
(push)
(assert (le x12 java.lang.Long))
(check-sat)
(pop)
(push)
(assert (le x8 java.lang.String))
(check-sat)
(pop)
(push)
(assert (not (le x8 java.lang.String)))
(check-sat)
(push)
(assert (le x6 java.lang.String))
(check-sat)
(pop)
(push)
(assert (not (le x6 java.lang.String)))
(check-sat)
(pop)
(push)
(assert (le x10 siena.AttributeConstraint))
(check-sat)
(push)
(assert (le x15 siena.Event))
(check-sat)
(pop)
(push)
(assert (not (le x15 siena.Event)))
(check-sat)
(pop)
(push)
(assert (le x14 siena.HierarchicalDispatcher))
(check-sat)
(pop)
(push)
(assert (not (le x14 siena.HierarchicalDispatcher)))
(check-sat)
(pop)
(pop)
(push)
(assert (le x10 java.lang.Long))
(check-sat)
(pop)
(push)
(assert (le x10 java.lang.Double))
(check-sat)
(pop)
(push)
(assert (le x10 java.io.File))
(check-sat)
(pop)
(push)
(assert (le x10 java.net.InetAddress))
(check-sat)
(pop)
(push)
(assert (not (le x10 java.util.AbstractMap)))
(check-sat)
(push)
(assert (not (le x10 java.net.InetAddress)))
(check-sat)
(push)
(assert (not (le x10 siena.Subscriber)))
(check-sat)
(push)
(assert (not (le x10 java.io.File)))
(check-sat)
(push)
(assert (not (le x10 java.lang.String)))
(check-sat)
(push)
(assert (le x10 java.lang.Object))
(check-sat)
(push)
(assert (not (le x10 siena.AttributeConstraint)))
(check-sat)
(push)
(assert (not (le x10 siena.AttributeValue)))
(check-sat)
(push)
(assert (le x15 java.lang.String))
(check-sat)
(pop)
(push)
(assert (not (le x15 java.lang.String)))
(check-sat)
(pop)
(push)
(assert (le x11 java.lang.Object))
(check-sat)
(pop)
(push)
(assert (not (le x11 java.lang.Object)))
(check-sat)
(pop)
(pop)
(pop)
(pop)
(pop)
(pop)
(pop)
(pop)
(pop)
(push)
(assert (le x10 java.lang.Integer))
(check-sat)
(pop)
(push)
(assert (le x10 siena.AttributeValue))
(check-sat)
(push)
(assert (le x11 java.lang.Object))
(check-sat)
(push)
(assert (le x13 java.lang.StringBuilder))
(check-sat)
(pop)
(push)
(assert (not (le x13 java.lang.StringBuilder)))
(check-sat)
(pop)
(push)
(assert (le x8 java.lang.String))
(check-sat)
(pop)
(push)
(assert (not (le x8 java.lang.String)))
(check-sat)
(push)
(assert (le x1 java.lang.String))
(check-sat)
(pop)
(push)
(assert (not (le x1 java.lang.String)))
(check-sat)
(pop)
(pop)
(pop)
(push)
(assert (not (le x11 java.lang.Object)))
(check-sat)
(pop)
(push)
(assert (le x9 java.lang.String))
(check-sat)
(pop)
(push)
(assert (not (le x9 java.lang.String)))
(check-sat)
(pop)
(pop)
(push)
(assert (le x10 java.lang.Byte))
(check-sat)
(pop)
(push)
(assert (le x10 java.lang.String))
(check-sat)
(pop)
(push)
(assert (le x10 java.util.AbstractSet))
(check-sat)
(push)
(assert (le x13 java.lang.StringBuilder))
(check-sat)
(pop)
(push)
(assert (not (le x13 java.lang.StringBuilder)))
(check-sat)
(pop)
(pop)
(push)
(assert (le x10 siena.Subscriber))
(check-sat)
(pop)
(push)
(assert (le x10 java.util.AbstractList))
(check-sat)
(pop)
(push)
(assert (le x10 java.util.AbstractMap))
(check-sat)
(pop)
(push)
(assert (le x5 siena.Tokenizer))
(check-sat)
(pop)
(push)
(assert (not (le x5 siena.Tokenizer)))
(check-sat)
(push)
(assert (le x3 siena.Event))
(check-sat)
(pop)
(push)
(assert (not (le x3 siena.Event)))
(check-sat)
(push)
(assert (le x3 siena.Event))
(check-sat)
(pop)
(push)
(assert (not (le x3 siena.Event)))
(check-sat)
(pop)
(pop)
(push)
(assert (le x0 java.util.Set))
(check-sat)
(pop)
(push)
(assert (not (le x0 java.util.Set)))
(check-sat)
(push)
(assert (le x15 java.lang.StringBuilder))
(check-sat)
(push)
(assert (le x8 java.lang.String))
(check-sat)
(pop)
(push)
(assert (not (le x8 java.lang.String)))
(check-sat)
(pop)
(pop)
(push)
(assert (not (le x15 java.lang.StringBuilder)))
(check-sat)
(pop)
(pop)
(push)
(assert (le x11 java.lang.Object))
(check-sat)
(push)
(assert (le x9 siena.ByteBuf))
(check-sat)
(pop)
(push)
(assert (not (le x9 siena.ByteBuf)))
(check-sat)
(pop)
(pop)
(push)
(assert (not (le x11 java.lang.Object)))
(check-sat)
(pop)
(pop)
(push)
(assert (le x12 java.lang.StringBuilder))
(check-sat)
(pop)
(push)
(assert (not (le x12 java.lang.StringBuilder)))
(check-sat)
(pop)
(pop)
(pop)
(push)
(assert (not (le x11 java.lang.Object)))
(check-sat)
(pop)
(pop)
(pop)
(push)
(assert (le x5 java.lang.String))
(check-sat)
(push)
(assert (le x1 java.lang.Byte))
(check-sat)
(pop)
(push)
(assert (not (le x1 java.lang.Byte)))
(check-sat)
(push)
(assert (le x11 java.lang.Object))
(check-sat)
(pop)
(push)
(assert (not (le x11 java.lang.Object)))
(check-sat)
(pop)
(push)
(assert (le x2 siena.Event))
(check-sat)
(pop)
(push)
(assert (not (le x2 siena.Event)))
(check-sat)
(push)
(assert (le x15 siena.HierarchicalDispatcher))
(check-sat)
(pop)
(push)
(assert (not (le x15 siena.HierarchicalDispatcher)))
(check-sat)
(pop)
(push)
(assert (le x14 siena.HierarchicalDispatcher))
(check-sat)
(pop)
(push)
(assert (not (le x14 siena.HierarchicalDispatcher)))
(check-sat)
(pop)
(pop)
(push)
(assert (le x11 java.lang.Object))
(check-sat)
(push)
(assert (le x0 java.lang.String))
(check-sat)
(pop)
(push)
(assert (not (le x0 java.lang.String)))
(check-sat)
(pop)
(push)
(assert (le x3 java.lang.StringBuilder))
(check-sat)
(pop)
(push)
(assert (not (le x3 java.lang.StringBuilder)))
(check-sat)
(pop)
(pop)
(push)
(assert (not (le x11 java.lang.Object)))
(check-sat)
(pop)
(push)
(assert (le x15 java.lang.StringBuilder))
(check-sat)
(pop)
(push)
(assert (not (le x15 java.lang.StringBuilder)))
(check-sat)
(push)
(assert (le x1 java.lang.Byte))
(check-sat)
(pop)
(push)
(assert (not (le x1 java.lang.Byte)))
(check-sat)
(push)
(assert (le x13 java.lang.StringBuilder))
(check-sat)
(push)
(assert (le x7 siena.HierarchicalDispatcher))
(check-sat)
(push)
(assert (le x0 java.lang.Integer))
(check-sat)
(push)
(assert (le x1 java.lang.Byte))
(check-sat)
(pop)
(push)
(assert (not (le x1 java.lang.Byte)))
(check-sat)
(pop)
(pop)
(push)
(assert (not (le x0 java.lang.Integer)))
(check-sat)
(push)
(assert (le x11 java.lang.Object))
(check-sat)
(pop)
(push)
(assert (not (le x11 java.lang.Object)))
(check-sat)
(pop)
(pop)
(pop)
(push)
(assert (not (le x7 siena.HierarchicalDispatcher)))
(check-sat)
(pop)
(push)
(assert (le x1 java.lang.Byte))
(check-sat)
(pop)
(push)
(assert (not (le x1 java.lang.Byte)))
(check-sat)
(push)
(assert (le x0 siena.Event))
(check-sat)
(pop)
(push)
(assert (not (le x0 siena.Event)))
(check-sat)
(pop)
(pop)
(push)
(assert (le x11 java.lang.Object))
(check-sat)
(push)
(assert (le x8 java.lang.StringBuilder))
(check-sat)
(pop)
(push)
(assert (not (le x8 java.lang.StringBuilder)))
(check-sat)
(pop)
(pop)
(push)
(assert (not (le x11 java.lang.Object)))
(check-sat)
(pop)
(pop)
(push)
(assert (not (le x13 java.lang.StringBuilder)))
(check-sat)
(pop)
(pop)
(push)
(assert (le x6 java.lang.String))
(check-sat)
(push)
(assert (le x15 java.lang.StringBuilder))
(check-sat)
(pop)
(push)
(assert (not (le x15 java.lang.StringBuilder)))
(check-sat)
(pop)
(push)
(assert (le x6 java.lang.String))
(check-sat)
(pop)
(push)
(assert (not (le x6 java.lang.String)))
(check-sat)
(pop)
(push)
(assert (le x9 siena.Event))
(check-sat)
(push)
(assert (le x12 java.lang.String))
(check-sat)
(pop)
(push)
(assert (not (le x12 java.lang.String)))
(check-sat)
(push)
(assert (le x7 siena.OpCov))
(check-sat)
(push)
(assert (le x1 java.lang.Byte))
(check-sat)
(pop)
(push)
(assert (not (le x1 java.lang.Byte)))
(check-sat)
(pop)
(pop)
(push)
(assert (not (le x7 siena.OpCov)))
(check-sat)
(pop)
(pop)
(pop)
(push)
(assert (not (le x9 siena.Event)))
(check-sat)
(pop)
(push)
(assert (le x5 java.lang.String))
(check-sat)
(pop)
(push)
(assert (not (le x5 java.lang.String)))
(check-sat)
(pop)
(pop)
(push)
(assert (not (le x6 java.lang.String)))
(check-sat)
(pop)
(pop)
(push)
(assert (le x12 java.lang.String))
(check-sat)
(pop)
(push)
(assert (not (le x12 java.lang.String)))
(check-sat)
(push)
(assert (le x2 siena.ByteBuf))
(check-sat)
(pop)
(push)
(assert (not (le x2 siena.ByteBuf)))
(check-sat)
(pop)
(pop)
(push)
(assert (le x10 java.lang.StringBuilder))
(check-sat)
(push)
(assert (le x11 java.lang.Object))
(check-sat)
(pop)
(push)
(assert (not (le x11 java.lang.Object)))
(check-sat)
(pop)
(pop)
(push)
(assert (not (le x10 java.lang.StringBuilder)))
(check-sat)
(push)
(assert (le x2 java.lang.String))
(check-sat)
(pop)
(push)
(assert (not (le x2 java.lang.String)))
(check-sat)
(pop)
(push)
(assert (le x4 java.lang.StringBuilder))
(check-sat)
(pop)
(push)
(assert (not (le x4 java.lang.StringBuilder)))
(check-sat)
(push)
(assert (le x10 java.lang.StringBuilder))
(check-sat)
(pop)
(push)
(assert (not (le x10 java.lang.StringBuilder)))
(check-sat)
(push)
(assert (le x12 java.lang.String))
(check-sat)
(pop)
(push)
(assert (not (le x12 java.lang.String)))
(check-sat)
(pop)
(push)
(assert (le x11 java.lang.Object))
(check-sat)
(push)
(assert (le x9 siena.AttributeConstraint))
(check-sat)
(push)
(assert (le x1 java.lang.Byte))
(check-sat)
(pop)
(push)
(assert (not (le x1 java.lang.Byte)))
(check-sat)
(pop)
(pop)
(push)
(assert (not (le x9 siena.AttributeConstraint)))
(check-sat)
(push)
(assert (le x3 java.util.Set))
(check-sat)
(push)
(assert (le x3 java.util.Set))
(check-sat)
(pop)
(push)
(assert (not (le x3 java.util.Set)))
(check-sat)
(pop)
(pop)
(push)
(assert (not (le x3 java.util.Set)))
(check-sat)
(pop)
(push)
(assert (le x13 java.lang.StringBuilder))
(check-sat)
(pop)
(push)
(assert (not (le x13 java.lang.StringBuilder)))
(check-sat)
(pop)
(push)
(assert (le x7 siena.ByteBuf))
(check-sat)
(pop)
(push)
(assert (not (le x7 siena.ByteBuf)))
(check-sat)
(pop)
(pop)
(pop)
(push)
(assert (not (le x11 java.lang.Object)))
(check-sat)
(pop)
(pop)
(push)
(assert (le x4 java.lang.StringBuilder))
(check-sat)
(pop)
(push)
(assert (not (le x4 java.lang.StringBuilder)))
(check-sat)
(pop)
(push)
(assert (le x2 siena.HierarchicalDispatcher))
(check-sat)
(pop)
(push)
(assert (not (le x2 siena.HierarchicalDispatcher)))
(check-sat)
(pop)
(pop)
(pop)
(push)
(assert (le x7 java.lang.String))
(check-sat)
(push)
(assert (le x6 java.lang.String))
(check-sat)
(pop)
(push)
(assert (not (le x6 java.lang.String)))
(check-sat)
(pop)
(push)
(assert (le x8 java.lang.StringBuilder))
(check-sat)
(push)
(assert (le x13 java.lang.StringBuilder))
(check-sat)
(pop)
(push)
(assert (not (le x13 java.lang.StringBuilder)))
(check-sat)
(pop)
(push)
(assert (le x12 java.lang.String))
(check-sat)
(pop)
(push)
(assert (not (le x12 java.lang.String)))
(check-sat)
(pop)
(push)
(assert (le x15 java.lang.String))
(check-sat)
(pop)
(push)
(assert (not (le x15 java.lang.String)))
(check-sat)
(pop)
(push)
(assert (le x11 java.lang.Object))
(check-sat)
(pop)
(push)
(assert (not (le x11 java.lang.Object)))
(check-sat)
(pop)
(push)
(assert (le x2 siena.Filter))
(check-sat)
(pop)
(push)
(assert (not (le x2 siena.Filter)))
(check-sat)
(pop)
(pop)
(push)
(assert (not (le x8 java.lang.StringBuilder)))
(check-sat)
(push)
(assert (le x4 siena.ByteBuf))
(check-sat)
(pop)
(push)
(assert (not (le x4 siena.ByteBuf)))
(check-sat)
(pop)
(push)
(assert (le x11 java.lang.Object))
(check-sat)
(pop)
(push)
(assert (not (le x11 java.lang.Object)))
(check-sat)
(pop)
(pop)
(pop)
(push)
(assert (not (le x7 java.lang.String)))
(check-sat)
(push)
(assert (le x9 siena.AttributeValue))
(check-sat)
(pop)
(push)
(assert (not (le x9 siena.AttributeValue)))
(check-sat)
(push)
(assert (le x5 java.lang.String))
(check-sat)
(pop)
(push)
(assert (not (le x5 java.lang.String)))
(check-sat)
(pop)
(pop)
(pop)
(push)
(assert (le x10 java.lang.String))
(check-sat)
(pop)
(push)
(assert (not (le x10 java.lang.String)))
(check-sat)
(push)
(assert (le x0 java.lang.Throwable))
(check-sat)
(push)
(assert (le x4 siena.HierarchicalDispatcher))
(check-sat)
(pop)
(push)
(assert (not (le x4 siena.HierarchicalDispatcher)))
(check-sat)
(push)
(assert (le x9 siena.Notifiable))
(check-sat)
(pop)
(push)
(assert (not (le x9 siena.Notifiable)))
(check-sat)
(push)
(assert (le x2 java.lang.String))
(check-sat)
(pop)
(push)
(assert (not (le x2 java.lang.String)))
(check-sat)
(pop)
(push)
(assert (le x8 java.lang.String))
(check-sat)
(pop)
(push)
(assert (not (le x8 java.lang.String)))
(check-sat)
(push)
(assert (le x6 java.lang.String))
(check-sat)
(pop)
(push)
(assert (not (le x6 java.lang.String)))
(check-sat)
(pop)
(pop)
(pop)
(pop)
(push)
(assert (le x8 java.lang.String))
(check-sat)
(pop)
(push)
(assert (not (le x8 java.lang.String)))
(check-sat)
(push)
(assert (le x2 java.lang.String))
(check-sat)
(push)
(assert (le x6 java.lang.String))
(check-sat)
(pop)
(push)
(assert (not (le x6 java.lang.String)))
(check-sat)
(pop)
(pop)
(push)
(assert (not (le x2 java.lang.String)))
(check-sat)
(pop)
(pop)
(pop)
(push)
(assert (not (le x0 java.lang.Throwable)))
(check-sat)
(push)
(assert (le x5 java.lang.String))
(check-sat)
(pop)
(push)
(assert (not (le x5 java.lang.String)))
(check-sat)
(pop)
(push)
(assert (le x4 siena.ByteBuf))
(check-sat)
(pop)
(push)
(assert (not (le x4 siena.ByteBuf)))
(check-sat)
(push)
(assert (le x11 java.lang.Object))
(check-sat)
(pop)
(push)
(assert (not (le x11 java.lang.Object)))
(check-sat)
(pop)
(pop)
(push)
(assert (le x12 java.lang.String))
(check-sat)
(pop)
(push)
(assert (not (le x12 java.lang.String)))
(check-sat)
(push)
(assert (le x0 java.lang.Throwable))
(check-sat)
(pop)
(push)
(assert (not (le x0 java.lang.Throwable)))
(check-sat)
(pop)
(push)
(assert (le x0 java.lang.Throwable))
(check-sat)
(pop)
(push)
(assert (not (le x0 java.lang.Throwable)))
(check-sat)
(pop)
(pop)
(push)
(assert (le x7 java.lang.String))
(check-sat)
(pop)
(push)
(assert (not (le x7 java.lang.String)))
(check-sat)
(pop)
(push)
(assert (le x14 siena.HierarchicalDispatcher))
(check-sat)
(pop)
(push)
(assert (not (le x14 siena.HierarchicalDispatcher)))
(check-sat)
(push)
(assert (le x1 java.lang.Byte))
(check-sat)
(pop)
(push)
(assert (not (le x1 java.lang.Byte)))
(check-sat)
(pop)
(push)
(assert (le x5 java.lang.String))
(check-sat)
(pop)
(push)
(assert (not (le x5 java.lang.String)))
(check-sat)
(pop)
(push)
(assert (le x8 siena.AttributeValue))
(check-sat)
(pop)
(push)
(assert (not (le x8 siena.AttributeValue)))
(check-sat)
(pop)
(push)
(assert (le x4 siena.ByteBuf))
(check-sat)
(pop)
(push)
(assert (not (le x4 siena.ByteBuf)))
(check-sat)
(pop)
(push)
(assert (le x13 java.lang.StringBuilder))
(check-sat)
(pop)
(push)
(assert (not (le x13 java.lang.StringBuilder)))
(check-sat)
(pop)
(pop)
(push)
(assert (le x6 java.lang.String))
(check-sat)
(push)
(assert (le x4 java.lang.StringBuilder))
(check-sat)
(push)
(assert (le x15 siena.HierarchicalDispatcher))
(check-sat)
(push)
(assert (le x2 siena.Notifiable))
(check-sat)
(pop)
(push)
(assert (not (le x2 siena.Notifiable)))
(check-sat)
(pop)
(push)
(assert (le x13 java.lang.StringBuilder))
(check-sat)
(pop)
(push)
(assert (not (le x13 java.lang.StringBuilder)))
(check-sat)
(pop)
(push)
(assert (le x14 siena.HierarchicalDispatcher))
(check-sat)
(pop)
(push)
(assert (not (le x14 siena.HierarchicalDispatcher)))
(check-sat)
(push)
(assert (le x9 siena.Filter))
(check-sat)
(pop)
(push)
(assert (not (le x9 siena.Filter)))
(check-sat)
(push)
(assert (le x11 java.lang.Object))
(check-sat)
(pop)
(push)
(assert (not (le x11 java.lang.Object)))
(check-sat)
(pop)
(pop)
(pop)
(pop)
(push)
(assert (not (le x15 siena.HierarchicalDispatcher)))
(check-sat)
(pop)
(pop)
(push)
(assert (not (le x4 java.lang.StringBuilder)))
(check-sat)
(push)
(assert (le x14 siena.HierarchicalDispatcher))
(check-sat)
(pop)
(push)
(assert (not (le x14 siena.HierarchicalDispatcher)))
(check-sat)
(pop)
(pop)
(pop)
(push)
(assert (not (le x6 java.lang.String)))
(check-sat)
(pop)
(push)
(assert (le x4 siena.ByteBuf))
(check-sat)
(pop)
(push)
(assert (not (le x4 siena.ByteBuf)))
(check-sat)
(pop)
(pop)
(pop)
(pop)
(pop)
(push)
(assert (not (le x5 java.lang.String)))
(check-sat)
(push)
(assert (le x0 java.lang.String))
(check-sat)
(push)
(assert (le x0 java.lang.String))
(check-sat)
(pop)
(push)
(assert (not (le x0 java.lang.String)))
(check-sat)
(pop)
(push)
(assert (le x15 siena.ByteBuf))
(check-sat)
(push)
(assert (le x2 java.lang.String))
(check-sat)
(pop)
(push)
(assert (not (le x2 java.lang.String)))
(check-sat)
(pop)
(push)
(assert (le x3 java.lang.String))
(check-sat)
(push)
(assert (le x6 java.lang.String))
(check-sat)
(push)
(assert (le x5 java.lang.String))
(check-sat)
(pop)
(push)
(assert (not (le x5 java.lang.String)))
(check-sat)
(pop)
(pop)
(push)
(assert (not (le x6 java.lang.String)))
(check-sat)
(pop)
(pop)
(push)
(assert (not (le x3 java.lang.String)))
(check-sat)
(pop)
(push)
(assert (le x12 siena.AttributeValue))
(check-sat)
(push)
(assert (le x15 siena.ByteBuf))
(check-sat)
(pop)
(push)
(assert (not (le x15 siena.ByteBuf)))
(check-sat)
(pop)
(pop)
(push)
(assert (not (le x12 siena.AttributeValue)))
(check-sat)
(pop)
(push)
(assert (le x1 java.lang.StringBuilder))
(check-sat)
(pop)
(push)
(assert (not (le x1 java.lang.StringBuilder)))
(check-sat)
(pop)
(pop)
(push)
(assert (not (le x15 siena.ByteBuf)))
(check-sat)
(push)
(assert (le x11 java.lang.Object))
(check-sat)
(pop)
(push)
(assert (not (le x11 java.lang.Object)))
(check-sat)
(pop)
(push)
(assert (le x0 java.lang.String))
(check-sat)
(pop)
(push)
(assert (not (le x0 java.lang.String)))
(check-sat)
(pop)
(push)
(assert (le x3 java.util.Set))
(check-sat)
(pop)
(push)
(assert (not (le x3 java.util.Set)))
(check-sat)
(push)
(assert (le x15 siena.ByteBuf))
(check-sat)
(pop)
(push)
(assert (not (le x15 siena.ByteBuf)))
(check-sat)
(pop)
(push)
(assert (le x10 java.lang.String))
(check-sat)
(pop)
(push)
(assert (not (le x10 java.lang.String)))
(check-sat)
(pop)
(push)
(assert (le x1 java.lang.String))
(check-sat)
(pop)
(push)
(assert (not (le x1 java.lang.String)))
(check-sat)
(push)
(assert (le x9 java.util.Set))
(check-sat)
(push)
(assert (le x2 java.util.Set))
(check-sat)
(pop)
(push)
(assert (not (le x2 java.util.Set)))
(check-sat)
(pop)
(pop)
(push)
(assert (not (le x9 java.util.Set)))
(check-sat)
(push)
(assert (le x2 siena.ByteBuf))
(check-sat)
(pop)
(push)
(assert (not (le x2 siena.ByteBuf)))
(check-sat)
(pop)
(push)
(assert (le x13 java.lang.StringBuilder))
(check-sat)
(pop)
(push)
(assert (not (le x13 java.lang.StringBuilder)))
(check-sat)
(pop)
(pop)
(pop)
(pop)
(push)
(assert (le x15 siena.ByteBuf))
(check-sat)
(pop)
(push)
(assert (not (le x15 siena.ByteBuf)))
(check-sat)
(pop)
(pop)
(pop)
(push)
(assert (not (le x0 java.lang.String)))
(check-sat)
(push)
(assert (le x5 java.lang.String))
(check-sat)
(pop)
(push)
(assert (not (le x5 java.lang.String)))
(check-sat)
(pop)
(push)
(assert (le x13 java.lang.StringBuilder))
(check-sat)
(pop)
(push)
(assert (not (le x13 java.lang.StringBuilder)))
(check-sat)
(pop)
(pop)
(pop)
(push)
(assert (le x5 java.lang.String))
(check-sat)
(push)
(assert (le x15 java.util.Set))
(check-sat)
(pop)
(push)
(assert (not (le x15 java.util.Set)))
(check-sat)
(pop)
(pop)
(push)
(assert (not (le x5 java.lang.String)))
(check-sat)
(push)
(assert (le x9 java.lang.Long))
(check-sat)
(push)
(assert (le x8 java.lang.StringBuilder))
(check-sat)
(push)
(assert (le x11 java.lang.Object))
(check-sat)
(push)
(assert (le x4 siena.Poset))
(check-sat)
(pop)
(push)
(assert (not (le x4 siena.Poset)))
(check-sat)
(pop)
(push)
(assert (le x13 java.lang.StringBuilder))
(check-sat)
(pop)
(push)
(assert (not (le x13 java.lang.StringBuilder)))
(check-sat)
(pop)
(push)
(assert (le x0 siena.OpCov))
(check-sat)
(pop)
(push)
(assert (not (le x0 siena.OpCov)))
(check-sat)
(push)
(assert (le x4 siena.Event))
(check-sat)
(pop)
(push)
(assert (not (le x4 siena.Event)))
(check-sat)
(push)
(assert (le x4 siena.Event))
(check-sat)
(pop)
(push)
(assert (not (le x4 siena.Event)))
(check-sat)
(pop)
(pop)
(push)
(assert (le x6 java.lang.String))
(check-sat)
(pop)
(push)
(assert (not (le x6 java.lang.String)))
(check-sat)
(pop)
(pop)
(push)
(assert (le x5 java.lang.String))
(check-sat)
(pop)
(push)
(assert (not (le x5 java.lang.String)))
(check-sat)
(push)
(assert (le x13 java.lang.StringBuilder))
(check-sat)
(pop)
(push)
(assert (not (le x13 java.lang.StringBuilder)))
(check-sat)
(pop)
(pop)
(push)
(assert (le x14 siena.HierarchicalDispatcher))
(check-sat)
(pop)
(push)
(assert (not (le x14 siena.HierarchicalDispatcher)))
(check-sat)
(push)
(assert (le x9 java.lang.Long))
(check-sat)
(pop)
(push)
(assert (not (le x9 java.lang.Long)))
(check-sat)
(pop)
(pop)
(pop)
(push)
(assert (not (le x11 java.lang.Object)))
(check-sat)
(pop)
(push)
(assert (le x5 java.lang.String))
(check-sat)
(pop)
(push)
(assert (not (le x5 java.lang.String)))
(check-sat)
(pop)
(push)
(assert (le x9 java.lang.Long))
(check-sat)
(push)
(assert (le x14 siena.HierarchicalDispatcher))
(check-sat)
(pop)
(push)
(assert (not (le x14 siena.HierarchicalDispatcher)))
(check-sat)
(pop)
(push)
(assert (le x9 java.lang.Long))
(check-sat)
(pop)
(push)
(assert (not (le x9 java.lang.Long)))
(check-sat)
(pop)
(pop)
(push)
(assert (not (le x9 java.lang.Long)))
(check-sat)
(pop)
(push)
(assert (le x15 java.lang.Byte))
(check-sat)
(push)
(assert (le x3 java.lang.String))
(check-sat)
(pop)
(push)
(assert (not (le x3 java.lang.String)))
(check-sat)
(push)
(assert (le x2 java.lang.Throwable))
(check-sat)
(pop)
(push)
(assert (not (le x2 java.lang.Throwable)))
(check-sat)
(pop)
(push)
(assert (le x13 java.lang.StringBuilder))
(check-sat)
(pop)
(push)
(assert (not (le x13 java.lang.StringBuilder)))
(check-sat)
(pop)
(pop)
(pop)
(push)
(assert (not (le x15 java.lang.Byte)))
(check-sat)
(push)
(assert (le x12 java.lang.String))
(check-sat)
(pop)
(push)
(assert (not (le x12 java.lang.String)))
(check-sat)
(pop)
(push)
(assert (le x10 siena.ByteBuf))
(check-sat)
(pop)
(push)
(assert (not (le x10 siena.ByteBuf)))
(check-sat)
(push)
(assert (le x11 java.lang.Object))
(check-sat)
(push)
(assert (le x10 siena.ByteBuf))
(check-sat)
(pop)
(push)
(assert (not (le x10 siena.ByteBuf)))
(check-sat)
(push)
(assert (le x13 java.lang.StringBuilder))
(check-sat)
(pop)
(push)
(assert (not (le x13 java.lang.StringBuilder)))
(check-sat)
(pop)
(pop)
(push)
(assert (le x4 java.util.Set))
(check-sat)
(pop)
(push)
(assert (not (le x4 java.util.Set)))
(check-sat)
(pop)
(pop)
(push)
(assert (not (le x11 java.lang.Object)))
(check-sat)
(pop)
(pop)
(pop)
(pop)
(push)
(assert (not (le x8 java.lang.StringBuilder)))
(check-sat)
(push)
(assert (le x0 siena.OpCov))
(check-sat)
(push)
(assert (le x14 siena.HierarchicalDispatcher))
(check-sat)
(pop)
(push)
(assert (not (le x14 siena.HierarchicalDispatcher)))
(check-sat)
(push)
(assert (le x6 java.lang.String))
(check-sat)
(push)
(assert (le x12 java.lang.String))
(check-sat)
(pop)
(push)
(assert (not (le x12 java.lang.String)))
(check-sat)
(pop)
(pop)
(push)
(assert (not (le x6 java.lang.String)))
(check-sat)
(pop)
(pop)
(pop)
(push)
(assert (not (le x0 siena.OpCov)))
(check-sat)
(pop)
(push)
(assert (le x15 siena.Notifiable))
(check-sat)
(pop)
(push)
(assert (not (le x15 siena.Notifiable)))
(check-sat)
(pop)
(pop)
(push)
(assert (le x11 java.lang.Object))
(check-sat)
(pop)
(push)
(assert (not (le x11 java.lang.Object)))
(check-sat)
(pop)
(push)
(assert (le x0 siena.Tokenizer))
(check-sat)
(push)
(assert (le x4 siena.AttributeValue))
(check-sat)
(push)
(assert (le x12 java.lang.StringBuilder))
(check-sat)
(pop)
(push)
(assert (not (le x12 java.lang.StringBuilder)))
(check-sat)
(pop)
(pop)
(push)
(assert (not (le x4 siena.AttributeValue)))
(check-sat)
(pop)
(push)
(assert (le x12 java.lang.StringBuilder))
(check-sat)
(pop)
(push)
(assert (not (le x12 java.lang.StringBuilder)))
(check-sat)
(pop)
(push)
(assert (le x13 java.lang.StringBuilder))
(check-sat)
(push)
(assert (le x9 java.lang.Long))
(check-sat)
(push)
(assert (le x7 siena.ByteBuf))
(check-sat)
(push)
(assert (le x5 java.lang.String))
(check-sat)
(pop)
(push)
(assert (not (le x5 java.lang.String)))
(check-sat)
(pop)
(pop)
(push)
(assert (not (le x7 siena.ByteBuf)))
(check-sat)
(pop)
(pop)
(push)
(assert (not (le x9 java.lang.Long)))
(check-sat)
(pop)
(pop)
(push)
(assert (not (le x13 java.lang.StringBuilder)))
(check-sat)
(pop)
(pop)
(push)
(assert (not (le x0 siena.Tokenizer)))
(check-sat)
(push)
(assert (le x11 java.lang.Object))
(check-sat)
(pop)
(push)
(assert (not (le x11 java.lang.Object)))
(check-sat)
(pop)
(push)
(assert (le x12 java.lang.String))
(check-sat)
(pop)
(push)
(assert (not (le x12 java.lang.String)))
(check-sat)
(pop)
(pop)
(pop)
(push)
(assert (not (le x9 java.lang.Long)))
(check-sat)
(push)
(assert (le x2 java.lang.Byte))
(check-sat)
(pop)
(push)
(assert (not (le x2 java.lang.Byte)))
(check-sat)
(pop)
(push)
(assert (le x13 java.lang.StringBuilder))
(check-sat)
(pop)
(push)
(assert (not (le x13 java.lang.StringBuilder)))
(check-sat)
(pop)
(pop)
(pop)
(pop)
(push)
(assert (not (le x6 java.lang.String)))
(check-sat)
(pop)
(pop)
(push)
(assert (not (le x11 siena.AttributeConstraint)))
(check-sat)
(push)
(assert (not (le x11 siena.Subscriber)))
(check-sat)
(push)
(assert (not (le x11 java.lang.String)))
(check-sat)
(push)
(assert (not (le x11 java.util.AbstractMap)))
(check-sat)
(push)
(assert (not (le x11 java.net.InetAddress)))
(check-sat)
(push)
(assert (not (le x11 java.io.File)))
(check-sat)
(push)
(assert (le x11 java.lang.Object))
(check-sat)
(push)
(assert (not (le x11 siena.AttributeValue)))
(check-sat)
(pop)
(pop)
(pop)
(pop)
(pop)
(pop)
(pop)
(pop)
(push)
(assert (le x11 java.util.AbstractSet))
(check-sat)
(pop)
(push)
(assert (le x11 siena.AttributeConstraint))
(check-sat)
(pop)
(push)
(assert (le x11 java.lang.Long))
(check-sat)
(pop)
(push)
(assert (le x11 siena.AttributeValue))
(check-sat)
(pop)
(push)
(assert (le x11 java.net.InetAddress))
(check-sat)
(pop)
(push)
(assert (le x11 java.lang.Integer))
(check-sat)
(pop)
(push)
(assert (le x11 java.lang.String))
(check-sat)
(pop)
(push)
(assert (le x11 java.lang.Byte))
(check-sat)
(pop)
(push)
(assert (le x11 java.util.AbstractList))
(check-sat)
(pop)
(push)
(assert (le x11 java.lang.Double))
(check-sat)
(pop)
(push)
(assert (le x11 siena.Subscriber))
(check-sat)
(pop)
(pop)
(pop)
(push)
(assert (not (le x13 java.lang.StringBuilder)))
(check-sat)
(pop)
